InboundTrucks  = 12;
OutboundTrucks = 8;
InboundDoors   = 2;
OutboundDoors  = 1;
ReleaseTime    = [32,13,19,4,23,14,29,10,6,19,28,15];
UnloadTime     = [9,7,7,3,6,5,8,2,7,2,9,8];
LoadTime       = [10,2,9,10,8,5,6,10];
TransferTime   = [| 3,0,0,0,0,0,0,0 | 4,0,0,0,2,0,0,0 | 0,0,0,1,0,0,0,0 | 0,0,0,0,0,4,0,0 | 2,0,0,0,0,3,4,0 | 5,0,0,0,1,0,2,0 | 5,1,4,0,0,0,0,0 | 5,5,3,5,0,5,0,2 | 0,0,0,0,5,0,0,0 | 0,3,4,0,1,0,1,0 | 0,0,0,0,2,0,0,0 | 0,0,0,0,0,0,3,4 |];
